instances/shortest_path/discrete/shortest_path_3_14.kp
55340
79

[12.506286868208122 9.539311787267179 4.248435067397391 9.910330509451425 0.11869913767656148 2.367425963758896]

[53 37 43 52 1 79]
